NAME          
ROWS
 N  OBJ
 L  c1
COLUMNS
    MARKER    'MARKER'                 'INTORG'
    x[1]      c1        134
    x[1]      OBJ       -187
    x[2]      c1        571
    x[2]      OBJ       -135
    x[3]      c1        573
    x[3]      OBJ       -923
    x[4]      c1        905
    x[4]      OBJ       -166
    x[5]      c1        469
    x[5]      OBJ       -391
    x[6]      c1        196
    x[6]      OBJ       -160
    x[7]      c1        53
    x[7]      OBJ       -127
    x[8]      c1        636
    x[8]      OBJ       -368
    x[9]      c1        321
    x[9]      OBJ       -279
    x[10]     c1        195
    x[10]     OBJ       -798
    x[11]     c1        101
    x[11]     OBJ       -863
    x[12]     c1        823
    x[12]     OBJ       -46
    x[13]     c1        292
    x[13]     OBJ       -998
    x[14]     c1        991
    x[14]     OBJ       -324
    x[15]     c1        64
    x[15]     OBJ       -170
    x[16]     c1        858
    x[16]     OBJ       -575
    x[17]     c1        375
    x[17]     OBJ       -417
    x[18]     c1        603
    x[18]     OBJ       -216
    x[19]     c1        842
    x[19]     OBJ       -712
    x[20]     c1        41
    x[20]     OBJ       -56
    x[21]     c1        467
    x[21]     OBJ       -75
    x[22]     c1        507
    x[22]     OBJ       -996
    x[23]     c1        49
    x[23]     OBJ       -417
    x[24]     c1        457
    x[24]     OBJ       -21
    x[25]     c1        526
    x[25]     OBJ       -17
    x[26]     c1        225
    x[26]     OBJ       -243
    x[27]     c1        693
    x[27]     OBJ       -762
    x[28]     c1        311
    x[28]     OBJ       -674
    x[29]     c1        508
    x[29]     OBJ       -743
    x[30]     c1        210
    x[30]     OBJ       -622
RHS
    rhs       c1        6498
RANGES
BOUNDS
 BV bounds    x[1]
 BV bounds    x[2]
 BV bounds    x[3]
 BV bounds    x[4]
 BV bounds    x[5]
 BV bounds    x[6]
 BV bounds    x[7]
 BV bounds    x[8]
 BV bounds    x[9]
 BV bounds    x[10]
 BV bounds    x[11]
 BV bounds    x[12]
 BV bounds    x[13]
 BV bounds    x[14]
 BV bounds    x[15]
 BV bounds    x[16]
 BV bounds    x[17]
 BV bounds    x[18]
 BV bounds    x[19]
 BV bounds    x[20]
 BV bounds    x[21]
 BV bounds    x[22]
 BV bounds    x[23]
 BV bounds    x[24]
 BV bounds    x[25]
 BV bounds    x[26]
 BV bounds    x[27]
 BV bounds    x[28]
 BV bounds    x[29]
 BV bounds    x[30]
ENDATA
